NAME: test1628
TYPE: TSP
DIMENSION: 11
EDGE_WEIGHT_TYPE: EUC_2D
NODE_COORD_SECTION
1 12.897167635665973 21.059118466442982
2 37.763384338261965 61.67476256728842
3 80.72045602560138 32.21348290438676
4 70.54060165345456 41.33758855241481
5 9.566469450996951 34.44605325970167
6 83.17915541821158 92.0389897364917
7 34.971587678961434 41.356977812178286
8 68.19559540745543 78.1261311777873
9 0.47372160168861477 43.23134220829098
10 63.696490659549944 42.761114762010735
11 54.21828322867866 1.8349945286338043
EOF
